nbGenes = 10;
preference = [[0 53 85 64 58 9 3 51 16 0 ]
[47 0 8 54 93 36 91 50 85 83 ]
[15 92 0 17 37 16 81 71 78 20 ]
[36 46 83 0 32 4 63 39 51 80 ]
[42 7 63 68 0 95 39 42 71 63 ]
[91 64 84 96 5 0 20 25 10 98 ]
[97 9 19 37 61 80 0 2 29 9 ]
[49 50 29 61 58 75 98 0 51 22 ]
[84 15 22 49 29 90 71 49 0 77 ]
[100 17 80 20 37 2 91 78 23 0 ]
];
